unknown
(model
; cardinality of BoundSet is 1
(declare-sort BoundSet 0)
; rep: @uc_BoundSet_0
; cardinality of UnboundSet is 1
(declare-sort UnboundSet 0)
(declare-fun groundTerm_2 () UnboundSet)
(define-fun AreEverywhere ((BOUND_VARIABLE_378 BoundSet)) Bool true)
(define-fun CreatedBecause ((BOUND_VARIABLE_390 BoundSet) (BOUND_VARIABLE_391 BoundSet)) Bool false)
)
sat
(model
; cardinality of BoundSet is 1
(declare-sort BoundSet 0)
; rep: @uc_BoundSet_0
; cardinality of UnboundSet is 1
(declare-sort UnboundSet 0)
(declare-fun groundTerm_5 () UnboundSet)
(define-fun AreEverywhere ((BOUND_VARIABLE_400 BoundSet)) Bool true)
(define-fun CreatedBecause ((BOUND_VARIABLE_408 BoundSet) (BOUND_VARIABLE_409 BoundSet)) Bool false)
)
